Route 1 : 75 194 144 8 182 21 103 53 148 22 1 45 11 33 119 36
Route 2 : 57 83 181 65 114 25 61 197 16 167 133 108 105 55 87 179 180 169 193 137 195 134 142 136
Route 3 : 115 116 73 156 191 3 59 93 139 64 78 50 109 31 161 187 176 43 111 155
Route 4 : 106 175 196 129 126 168 81 63 46 47 48 29 30 147 68 90 39 13 92 199 72 162
Route 5 : 42 4 112 80 76 171 125 101 188 6 166
Route 6 : 198 27 67 26 52 183 70 189 89 104 9 71 44 200 185 149 150 19 40 88 107 132
Route 7 : 143 160 151 58 145 15 69 51 85 10 62 124 146 95 186 74 5 130 118 37 17
Route 8 : 2 165 66 184 12 177 23 99 86 127 28 97 158 163 60 131 41 157 153 54 84 122 35 77 141
Route 9 : 98 49 110 56 135
Route 10 : 102 7 113 14 172 82 192 121 91 128 38 120 152 138 174 96 79
Route 11 : 164 178 32 18 170 94 154 100 24 173 190 20 123 140 159 117 34
Cost 121959
